
Gurobi 10.0.1 (linux64) logging started Sun Nov 26 16:18:03 2023

Set parameter LogFile to value "ArtificialInstance/ExperimentV2/S2T5K3/BaSp/gurobi91.txt"
Gurobi Optimizer version 10.0.1 build v10.0.1rc0 (linux64)

CPU model: AMD EPYC 7H12 64-Core Processor, instruction set [SSE2|AVX|AVX2]
Thread count: 128 physical cores, 128 logical processors, using up to 32 threads

Academic license 656792 - for non-commercial use only - registered to b.___@student.vu.nl
Optimize a model with 3940 rows, 6000 columns and 20480 nonzeros
Model fingerprint: 0xb171e3bc
Variable types: 0 continuous, 6000 integer (6000 binary)
Coefficient statistics:
  Matrix range     [1e+00, 1e+00]
  Objective range  [2e+00, 2e+01]
  Bounds range     [1e+00, 1e+00]
  RHS range        [1e+00, 1e+00]
Found heuristic solution: objective 641.0328958
Presolve time: 0.03s
Presolved: 3940 rows, 6000 columns, 20480 nonzeros
Variable types: 0 continuous, 6000 integer (6000 binary)

Root relaxation: objective 4.529272e+01, 3200 iterations, 0.10 seconds (0.09 work units)

    Nodes    |    Current Node    |     Objective Bounds      |     Work
 Expl Unexpl |  Obj  Depth IntInf | Incumbent    BestBd   Gap | It/Node Time

     0     0   45.29272    0  780  641.03290   45.29272  92.9%     -    0s
H    0     0                     340.7911081   45.29272  86.7%     -    0s
H    0     0                     291.7295624   45.29272  84.5%     -    0s
H    0     0                     102.6878972   45.29272  55.9%     -    0s
H    0     0                      84.5602319   52.12381  38.4%     -    0s
     0     0   52.12381    0 1212   84.56023   52.12381  38.4%     -    0s
H    0     0                      83.8491523   52.12381  37.8%     -    0s
H    0     0                      76.3443395   57.70081  24.4%     -    0s
     0     0   57.70081    0 1199   76.34434   57.70081  24.4%     -    0s
     0     0   57.83955    0 1283   76.34434   57.83955  24.2%     -    0s
     0     0   57.84504    0 1237   76.34434   57.84504  24.2%     -    0s
     0     0   57.84771    0 1259   76.34434   57.84771  24.2%     -    0s
H    0     0                      74.3933023   58.86802  20.9%     -    1s
     0     0   58.86802    0 1221   74.39330   58.86802  20.9%     -    1s
H    0     0                      72.8170965   58.86802  19.2%     -    1s
     0     0   58.87886    0 1119   72.81710   58.87886  19.1%     -    1s
     0     0   58.87886    0 1120   72.81710   58.87886  19.1%     -    1s
     0     0   59.63829    0 1254   72.81710   59.63829  18.1%     -    1s
     0     0   59.72935    0 1169   72.81710   59.72935  18.0%     -    1s
     0     0   59.73309    0 1180   72.81710   59.73309  18.0%     -    1s
H    0     0                      72.5164432   60.61646  16.4%     -    1s
     0     0   60.61646    0 1163   72.51644   60.61646  16.4%     -    1s
     0     0   60.78045    0 1256   72.51644   60.78045  16.2%     -    1s
     0     0   60.78546    0 1270   72.51644   60.78546  16.2%     -    1s
     0     0   60.78546    0 1274   72.51644   60.78546  16.2%     -    1s
     0     0   61.15373    0 1128   72.51644   61.15373  15.7%     -    2s
     0     0   61.30816    0 1092   72.51644   61.30816  15.5%     -    2s
     0     0   61.32475    0 1100   72.51644   61.32475  15.4%     -    2s
     0     0   61.32562    0 1099   72.51644   61.32562  15.4%     -    2s
     0     0   61.34465    0 1098   72.51644   61.34465  15.4%     -    2s
H    0     0                      71.6768921   61.38228  14.4%     -    2s
     0     0   61.38228    0 1115   71.67689   61.38228  14.4%     -    2s
     0     0   61.38228    0 1131   71.67689   61.38228  14.4%     -    2s
     0     0   61.46671    0 1098   71.67689   61.46671  14.2%     -    2s
     0     0   61.47304    0 1126   71.67689   61.47304  14.2%     -    2s
     0     0   61.71893    0 1081   71.67689   61.71893  13.9%     -    2s
     0     0   61.71893    0  948   71.67689   61.71893  13.9%     -    2s
H    0     0                      71.2223583   61.71893  13.3%     -    2s
     0     2   61.71893    0  948   71.22236   61.71893  13.3%     -    3s
   262    51   69.06337   12  352   71.22236   64.03863  10.1%   267    5s

Cutting planes:
  Gomory: 5
  Zero half: 223
  RLT: 202

Explored 553 nodes (129559 simplex iterations) in 5.42 seconds (4.40 work units)
Thread count was 32 (of 128 available processors)

Solution count 10: 71.2224 71.6769 72.5164 ... 291.73

Optimal solution found (tolerance 1.00e-04)
Best objective 7.122235826158e+01, best bound 7.122235826158e+01, gap 0.0000%
